(declare-const term_to_project_onto0 Real)
(declare-const i Int)
(declare-const term_to_project_onto Real)
(declare-const |i'| Int)
(declare-const |c'| Int)
(declare-const c Int)
(assert (and (<= (- c) 0) (<= (- i) 0) (<= (+ i -99) 0) (<= (- i) 0)
               (= (+ |c'| (- i) (- c)) 0) (= (+ |i'| (- i) -1) 0)
               (= term_to_project_onto0 (+ |i'| (- i)))
               (= term_to_project_onto (+ |c'| (- c)))))
(check-sat)
